%%% Exp_DoseResponse conditions	%%%
%% Produces 1 plates.
%% 2020/12/04: It takes about 407 msec

%% Plate dimentions: (this is a small made-up plate)
num_rows = 6; %% height
num_cols = 10; %% width


horizontal_cell_lines = 1;
vertical_cell_lines = 1;

%allow_empty_wells = false;

size_empty_edge = 1;

% New and used!
concentrations_on_different_rows = true;
concentrations_on_different_columns = true;

% New and unused! (Restriction: replicates_on_different_plates /\ replicates_on_same_plate == false)
replicates_on_different_plates = true;
replicates_on_same_plate = false;

%%% Compounds %%%
compound_concentrations	 = [4,4]; 
compound_replicates	 = [2,2];

compound_names = ["comp\(i)" | i in 1..2];
compound_concentration_names = [|"0.3", "1", "3", "5"|"0.3", "1", "3", "5"|];


%%% Controls %%%
%num_controls = 4;
control_replicates = [4,4,4,4];
control_concentrations = [1,1,1,1];
control_names = ["pos","neg","blank","dmso"];
control_concentration_names = array2d(1..4, 1..1,["cont\(i)-conc\(1)" | i in 1..4]);    
  

